23042 16802 500 499 498 497 496 495 494 492 491 490 489 488 487 486 485 483 482 480 479 478 477 476 475 474 473 472 471 470 465 464 463 462 460 459 458 457 456 455 454 453 452 451 450 449 447 445 444 442 441 439 438 437 436 435 434 433 432 431 428 427 426 425 424 423 420 418 415 414 413 411 410 409 408 406 405 404 403 402 401 400 399 398 396 395 394 393 392 391 389 388 385 383 382 381 380 379 378 377 376 374 373 370 368 367 366 365 364 363 362 361 360 359 358 357 356 355 354 353 352 351 350 349 348 347 346 345 344 343 342 341 338 336 335 334 333 329 328 327 325 324 323 322 321 320 319 318 317 316 315 314 313 312 311 310 309 308 306 305 304 301 300 297 296 293 292 291 289 288 287 285 282 281 280 278 276 275 273 272 271 270 268 267 266 264 262 261 259 258 257 256 255 254 253 250 249 247 246 245 243 242 241 240 238 237 236 235 234 233 232 231 230 229 228 227 225 224 221 220 219 218 217 215 214 213 212 210 209 208 207 202 199 197 196 195 194 193 191 190 189 188 187 186 185 184 183 182 181 180 179 177 176 174 173 172 171 170 168 166 165 164 161 160 159 158 157 156 155 154 153 152 149 148 147 144 143 142 140 139 138 137 136 134 133 132 131 130 129 128 127 126 125 124 122 121 120 118 117 116 115 114 113 110 109 107 106 105 103 102 101 100 98 97 96 95 94 93 92 90 89 88 87 86 84 82 81 80 77 76 75 74 73 71 70 69 67 65 64 63 62 60 59 58 55 54 53 52 51 49 47 46 44 43 42 41 40 39 38 37 36 35 34 31 30 29 28 27 26 25 24 23 21 20 18 17 15 9 7 5 4 2 